212 5
10 10 10 10 10 

0 0 0 0 0 0 1 2 
0 0 0 0 0 0 2 3 10 
3 0 1 0 0 0 3 12 7 4 
9 0 5 0 0 0 1 5 
6 0 6 0 0 0 1 6 
10 0 4 0 0 0 1 8 
2 0 6 0 0 0 1 8 
3 0 6 0 0 0 1 9 
8 0 5 0 0 0 1 11 
4 0 7 0 0 0 1 11 
2 0 3 0 0 0 1 13 
2 0 7 0 0 0 1 13 
0 0 0 0 0 0 4 14 26 38 50 
0 0 0 0 0 0 1 15 
1 1 0 0 0 0 1 16 
6 5 0 0 0 0 2 20 17 
8 3 0 0 0 0 1 18 
3 9 0 0 0 0 2 21 19 
6 5 0 0 0 0 1 22 
7 4 0 0 0 0 1 21 
5 7 0 0 0 0 1 24 
4 4 0 0 0 0 1 23 
1 7 0 0 0 0 2 25 35 
2 5 0 0 0 0 1 25 
0 0 0 0 0 0 1 62 
0 0 0 0 0 0 2 27 32 
8 1 0 0 0 0 1 28 
9 7 0 0 0 0 1 29 
5 9 0 0 0 0 2 31 30 
4 6 0 0 0 0 1 33 
6 5 0 0 0 0 1 33 
1 6 0 0 0 0 2 33 180 
4 3 0 0 0 0 1 34 
7 4 0 0 0 0 2 36 35 
8 6 0 0 0 0 1 37 
3 3 0 0 0 0 1 37 
0 0 0 0 0 0 1 62 
0 0 0 0 0 0 2 39 46 
5 0 0 0 1 0 2 48 40 
4 0 0 0 6 0 1 41 
2 0 0 0 6 0 2 45 42 
2 0 0 0 6 0 1 43 
5 0 0 0 7 0 1 44 
1 0 0 0 6 0 2 47 98 
10 0 0 0 6 0 1 47 
7 0 0 0 4 0 1 47 
8 0 0 0 3 0 1 49 
4 0 0 0 5 0 1 49 
0 0 0 0 0 0 1 62 
0 0 0 0 0 0 3 51 57 59 
9 0 0 1 0 0 3 56 52 190 
10 0 0 4 0 0 1 53 
2 0 0 4 0 0 1 54 
7 0 0 5 0 0 1 55 
6 0 0 8 0 0 1 58 
5 0 0 5 0 0 1 58 
7 0 0 7 0 0 1 58 
9 0 0 5 0 0 1 60 
4 0 0 6 0 0 1 60 
4 0 0 5 0 0 1 61 
0 0 0 0 0 0 1 62 
0 0 0 0 0 0 5 63 85 107 129 151 
0 0 0 0 0 0 2 64 76 
3 0 0 0 3 2 2 68 65 
6 0 0 0 5 6 1 66 
9 0 0 0 3 5 1 67 
10 0 0 0 4 4 2 73 69 
2 0 0 0 4 1 2 69 205 
8 0 0 0 5 6 1 70 
2 0 0 0 7 6 2 80 71 
9 0 0 0 5 2 1 72 
2 0 0 0 10 7 1 74 
1 0 0 0 6 4 1 74 
5 0 0 0 9 6 2 83 75 
7 0 0 0 2 7 1 77 
6 0 0 0 2 4 1 77 
1 0 0 0 9 7 1 78 
5 0 0 0 6 6 1 79 
9 0 0 0 5 7 1 81 
10 0 0 0 7 10 1 81 
6 0 0 0 4 3 1 82 
10 0 0 0 1 5 1 84 
7 0 0 0 3 2 1 84 
0 0 0 0 0 0 1 187 
0 0 0 0 0 0 1 86 
10 1 0 0 0 1 3 93 90 87 
8 4 0 0 0 5 1 88 
7 6 0 0 0 2 1 89 
6 3 0 0 0 4 1 91 
4 5 0 0 0 5 1 91 
10 5 0 0 0 8 2 96 92 
5 3 0 0 0 6 2 100 94 
9 3 0 0 0 4 2 100 94 
5 3 0 0 0 5 1 95 
7 6 0 0 0 3 1 97 
7 4 0 0 0 7 1 97 
7 7 0 0 0 7 2 105 98 
9 8 0 0 0 4 1 99 
10 7 0 0 0 6 1 101 
4 4 0 0 0 9 1 101 
4 9 0 0 0 4 1 102 
7 4 0 0 0 5 1 103 
3 3 0 0 0 8 1 104 
7 6 0 0 0 3 2 106 139 
5 9 0 0 0 4 1 106 
0 0 0 0 0 0 1 187 
0 0 0 0 0 0 2 108 109 
3 0 2 1 0 0 2 111 110 
1 0 3 4 0 0 2 111 110 
9 0 9 4 0 0 2 114 113 
6 0 6 7 0 0 1 112 
1 0 6 5 0 0 1 113 
7 0 4 10 0 0 1 115 
7 0 4 5 0 0 1 115 
6 0 3 7 0 0 1 116 
6 0 3 6 0 0 2 118 117 
3 0 10 7 0 0 1 119 
9 0 3 5 0 0 1 119 
2 0 3 3 0 0 1 120 
7 0 8 4 0 0 2 121 182 
3 0 4 5 0 0 1 122 
9 0 4 3 0 0 2 126 123 
4 0 6 6 0 0 1 124 
1 0 3 6 0 0 1 125 
4 0 4 4 0 0 1 127 
10 0 8 5 0 0 1 127 
8 0 7 3 0 0 1 128 
0 0 0 0 0 0 1 187 
0 0 0 0 0 0 1 130 
8 1 0 0 0 1 2 136 131 
6 4 0 0 0 6 1 132 
5 6 0 0 0 9 2 133 201 
7 3 0 0 0 3 2 140 134 
8 4 0 0 0 6 1 135 
4 4 0 0 0 4 2 142 137 
7 1 0 0 0 8 2 140 138 
10 9 0 0 0 6 1 138 
10 3 0 0 0 6 2 146 139 
6 5 0 0 0 5 1 141 
7 7 0 0 0 4 1 142 
6 6 0 0 0 7 2 147 143 
1 5 0 0 0 5 2 146 143 
1 6 0 0 0 6 1 144 
7 4 0 0 0 2 1 145 
4 8 0 0 0 3 1 148 
7 7 0 0 0 2 1 148 
3 7 0 0 0 5 1 148 
10 5 0 0 0 6 1 149 
10 5 0 0 0 6 1 150 
0 0 0 0 0 0 1 187 
0 0 0 0 0 0 1 152 
9 0 1 0 0 0 2 154 153 
7 0 4 0 0 0 2 158 155 
7 0 5 0 0 0 2 158 157 
4 0 5 0 0 0 1 156 
7 0 5 0 0 0 1 157 
5 0 3 0 0 0 2 161 159 
6 0 3 0 0 0 2 161 159 
10 0 8 0 0 0 2 160 178 
2 0 7 0 0 0 1 162 
9 0 9 0 0 0 1 162 
0 0 0 0 0 0 2 163 175 
0 0 0 0 0 0 2 164 167 
9 0 0 0 1 0 2 170 165 
8 0 0 0 8 0 1 166 
7 0 0 0 8 0 2 172 168 
7 0 0 0 6 0 2 171 170 
7 0 0 0 4 0 1 169 
7 0 0 0 4 0 1 171 
2 0 0 0 3 0 1 172 
1 0 0 0 6 0 1 173 
9 0 0 0 7 0 1 173 
4 0 0 0 3 0 1 174 
0 0 0 0 0 0 1 187 
0 0 0 0 0 0 1 176 
2 0 0 0 1 0 1 177 
8 0 0 0 5 0 1 178 
6 0 0 0 1 0 1 179 
9 0 0 0 6 0 2 181 180 
4 0 0 0 4 0 2 183 182 
10 0 0 0 5 0 2 185 183 
4 0 0 0 5 0 2 185 184 
9 0 0 0 7 0 1 184 
2 0 0 0 9 0 1 186 
6 0 0 0 7 0 1 186 
0 0 0 0 0 0 1 187 
0 0 0 0 0 0 2 188 200 
0 0 0 0 0 0 2 189 193 
8 0 0 0 0 1 1 190 
10 0 0 0 0 3 1 191 
6 0 0 0 0 5 2 198 192 
9 0 0 0 0 2 2 197 194 
9 0 0 0 0 7 2 197 194 
10 0 0 0 0 6 1 195 
9 0 0 0 0 6 1 196 
1 0 0 0 0 5 1 199 
9 0 0 0 0 10 1 199 
3 0 0 0 0 5 1 199 
0 0 0 0 0 0 1 212 
0 0 0 0 0 0 2 201 203 
7 1 0 0 0 0 2 207 202 
1 7 0 0 0 0 1 204 
5 8 0 0 0 0 3 210 207 206 
3 7 0 0 0 0 2 210 205 
4 3 0 0 0 0 1 206 
6 5 0 0 0 0 1 208 
9 6 0 0 0 0 1 208 
5 4 0 0 0 0 1 209 
6 3 0 0 0 0 1 211 
8 6 0 0 0 0 1 211 
0 0 0 0 0 0 1 212 
0 0 0 0 0 0 0 
